
Gurobi 11.0.3 (linux64) logging started Fri Nov 22 07:55:38 2024

Set parameter LogFile to value "/home/yihong/Coding/OR_SUC/SUC_results_bigM100000_thread4/case24_ieee_rts_theta0.1_epsilon0.05_gurobi_seed680000_num_gen100_N_WDR100_load_scaling_factor1_proposed_T20quadra_cost.txt"
Set parameter TimeLimit to value 3600
Gurobi Optimizer version 11.0.3 build v11.0.3rc0 (linux64 - "Ubuntu 20.04.6 LTS")

CPU model: AMD EPYC 7532 32-Core Processor, instruction set [SSE2|AVX|AVX2]
Thread count: 64 physical cores, 128 logical processors, using up to 4 threads

Optimize a model with 47882 rows, 24901 columns and 1096282 nonzeros
Model fingerprint: 0xeffd30c1
Model has 2000 quadratic constraints
Variable types: 22901 continuous, 2000 integer (2000 binary)
Coefficient statistics:
  Matrix range     [3e-04, 3e+03]
  QMatrix range    [2e-03, 8e-03]
  QLMatrix range   [3e-01, 6e+01]
  Objective range  [1e+00, 1e+00]
  Bounds range     [1e+00, 1e+00]
  RHS range        [1e+00, 9e+03]
Presolve removed 39098 rows and 10555 columns
Presolve time: 0.34s
Presolved: 8784 rows, 14346 columns, 49140 nonzeros
Presolved model has 2000 quadratic constraint(s)
Variable types: 12346 continuous, 2000 integer (2000 binary)

Root relaxation: objective 2.828112e+04, 6793 iterations, 0.18 seconds (0.24 work units)

    Nodes    |    Current Node    |     Objective Bounds      |     Work
 Expl Unexpl |  Obj  Depth IntInf | Incumbent    BestBd   Gap | It/Node Time

H    0     0                    543499.10152 28281.1196  94.8%     -    0s
*    0     0               0    543499.10152 28281.1196  94.8%     -    0s
     0     0 274400.842    0  569 543499.102 274400.842  49.5%     -    1s
     0     0 510907.676    0  186 543499.102 510907.676  6.00%     -    1s
     0     0 511054.598    0   54 543499.102 511054.598  5.97%     -    1s
     0     0 511054.598    0   84 543499.102 511054.598  5.97%     -    2s
     0     0 511054.598    0   54 543499.102 511054.598  5.97%     -    2s
     0     0 511054.598    0   54 543499.102 511054.598  5.97%     -    2s
     0     0 511054.598    0   54 543499.102 511054.598  5.97%     -    2s
     0     0 511054.598    0   54 543499.102 511054.598  5.97%     -    2s
     0     2 511054.598    0   54 543499.102 511054.598  5.97%     -    3s
    91   103 511133.569   26   21 543499.102 511057.809  5.97%  32.6    5s
H  104   103                    511353.86560 511057.809  0.06%  34.3    5s
*  104   103              31    511353.86560 511057.809  0.06%  34.3    5s

Cutting planes:
  Gomory: 14
  Lift-and-project: 20
  Implied bound: 258
  MIR: 24
  Flow cover: 181
  RLT: 263
  Relax-and-lift: 103

Explored 109 nodes (22310 simplex iterations) in 5.72 seconds (6.69 work units)
Thread count was 4 (of 128 available processors)

Solution count 3: 511354 511354 543499 

Optimal solution found (tolerance 1.00e-03)
Warning: max constraint violation (8.1963e-08) exceeds tolerance
Best objective 5.113538656026e+05, best bound 5.110578090200e+05, gap 0.0579%
